************************************************************************
file with basedata            : cr511_.bas
initial value random generator: 123353339
************************************************************************
projects                      :  1
jobs (incl. supersource/sink ):  18
horizon                       :  127
RESOURCES
  - renewable                 :  5   R
  - nonrenewable              :  2   N
  - doubly constrained        :  0   D
************************************************************************
PROJECT INFORMATION:
pronr.  #jobs rel.date duedate tardcost  MPM-Time
    1     16      0       20        7       20
************************************************************************
PRECEDENCE RELATIONS:
jobnr.    #modes  #successors   successors
   1        1          3           2   3   4
   2        3          3           5  11  13
   3        3          3           6   8   9
   4        3          2           6  16
   5        3          2          14  16
   6        3          2           7  10
   7        3          2          12  14
   8        3          2          10  13
   9        3          1          11
  10        3          3          11  12  14
  11        3          1          15
  12        3          1          17
  13        3          3          15  16  17
  14        3          2          15  17
  15        3          1          18
  16        3          1          18
  17        3          1          18
  18        1          0        
************************************************************************
REQUESTS/DURATIONS:
jobnr. mode duration  R 1  R 2  R 3  R 4  R 5  N 1  N 2
------------------------------------------------------------------------
  1      1     0       0    0    0    0    0    0    0
  2      1     6       0    0    6    0    0    9    0
         2     7       0    0    5    2   10    7    0
         3     9       0    6    0    0    0    4    0
  3      1     1       6    2    0    6    0    8    0
         2     3       0    0    0    0    1    7    0
         3     9       1    0    4    0    0    7    0
  4      1     5       0    0    7    4    0    0    8
         2     6       4    0    4    0    0    0    7
         3    10       0    0    4    3    6    3    0
  5      1     2       0    0    0    2    6    0    9
         2     3       0    0    0    0    6    0    4
         3    10       0    0    2    0    0    5    0
  6      1     2       8    7   10    0    7    0    2
         2     3       3    6    9    0    7    0    2
         3     4       3    0    9    0    7    0    2
  7      1     2       0    6    0    5   10    0    6
         2     5       5    0    0    3    0    0    6
         3     7       4    3    3    2    4    5    0
  8      1     1       8    7    5    0    5    0    5
         2     2       0    0    2    4    0    8    0
         3     3       0    5    0    0    0    5    0
  9      1     1       4    0   10    0    8    7    0
         2     8       4    0    0    0    0    7    0
         3     8       4    0    0    0    7    6    0
 10      1     5       9    0    8    8    0    0    4
         2     6       6    0    0    8    0    3    0
         3     9       0    6    0    7    0    2    0
 11      1     4       0    0    6    0    7    4    0
         2     7       0    7    0    0    3    3    0
         3     8       7    5    5    0    0    0    4
 12      1     1       7    0    6    0    9    5    0
         2     4       7    1    4    0    0    5    0
         3    10       4    0    0    3    8    0    7
 13      1     4       0    0    6    0    0    0    8
         2     4       5    0    5    0    0    5    0
         3     7       5    0    2    2    4    5    0
 14      1     2       8    1    0    8    5    5    0
         2     3       7    1    9    0    0    3    0
         3     7       5    1    0    4    0    0    3
 15      1     1       0    0    0   10    0    2    0
         2     6       0    0    3    0    8    2    0
         3     7       0    5    2    0    8    1    0
 16      1     5       0    6    0    2    5    6    0
         2     6       8    4    8    0    4    0    4
         3    10       0    4    2    0    3    4    0
 17      1     6       0    0    8    4    0    0   10
         2     7       2    0    7    0    5    0   10
         3     9       0    9    5    3    4    9    0
 18      1     0       0    0    0    0    0    0    0
************************************************************************
RESOURCEAVAILABILITIES:
  R 1  R 2  R 3  R 4  R 5  N 1  N 2
   24   15   24   15   24   51   36
************************************************************************
